10
1 0 9
2 0 95
2 1 37
3 0 15
3 1 93
3 2 69
4 0 44
4 1 70
4 2 25
4 3 44
5 0 12
5 1 15
5 2 23
5 3 26
5 4 75
6 0 40
6 1 86
6 2 11
6 3 56
6 4 104
6 5 110
7 0 100
7 1 94
7 2 33
7 3 41
7 4 53
7 5 60
7 6 116
8 0 109
8 1 96
8 2 33
8 3 45
8 4 31
8 5 50
8 6 89
8 7 28
9 0 50
9 1 116
9 2 47
9 3 66
9 4 117
9 5 59
9 6 11
9 7 80
9 8 15
